n=14;
m=91;
E=[|9,14
|9,7
|12,3
|12,9
|8,3
|2,12
|6,11
|5,13
|5,6
|8,4
|7,5
|11,12
|4,8
|7,11
|2,11
|13,4
|6,9
|5,7
|4,10
|3,1
|5,13
|3,5
|11,2
|8,9
|3,14
|11,10
|14,9
|8,2
|7,9
|11,6
|10,13
|11,4
|1,12
|1,11
|3,9
|13,11
|9,3
|13,10
|7,6
|7,4
|9,3
|2,5
|9,2
|14,7
|10,14
|6,2
|3,5
|11,8
|7,12
|5,6
|11,9
|11,4
|12,1
|1,6
|8,12
|6,12
|14,1
|9,7
|11,6
|12,2
|14,11
|8,12
|5,4
|7,12
|2,5
|11,12
|1,9
|11,6
|13,5
|12,3
|10,8
|2,10
|3,2
|12,1
|8,2
|9,13
|12,10
|12,1
|8,1
|6,12
|11,3
|6,11
|2,4
|14,13
|4,2
|9,12
|7,9
|12,2
|12,6
|12,8
|1,10
|];

